NAME : Unnamed.906.tour
COMMENT : Length = 906
COMMENT : Found by LKH [Keld Helsgaun] Sat Oct 04 21:50:01 2014
TYPE : TOUR
DIMENSION : 50
TOUR_SECTION
1
3
50
2
5
7
15
26
38
35
43
46
48
47
24
34
32
37
45
42
41
49
27
20
11
10
8
22
13
4
19
17
16
12
21
18
9
14
30
33
28
29
31
39
23
25
36
40
44
6
-1
EOF
